c *********************************
c * Circuit generated by BenCGen
c *
c * RippleCarryAdder_20_20_20_InOutT
c *
c * Ports with 1 gate(s): 1
c * Ports with 2 gate(s): 101
c * Total gates: 102
c *********************************
p cnf 142 345
1 63 0
-1 -63 0
1 -62 0
63 -62 0
-1 -63 62 0
1 21 -65 0
-1 21 65 0
1 -21 65 0
-1 -21 -65 0
65 62 -41 0
-65 62 41 0
65 -62 41 0
-65 -62 -41 0
62 -66 0
65 -66 0
-62 -65 66 0
21 -67 0
1 -67 0
-21 -1 67 0
-66 64 0
-67 64 0
66 67 -64 0
2 22 -69 0
-2 22 69 0
2 -22 69 0
-2 -22 -69 0
69 64 -42 0
-69 64 42 0
69 -64 42 0
-69 -64 -42 0
64 -70 0
69 -70 0
-64 -69 70 0
22 -71 0
2 -71 0
-22 -2 71 0
-70 68 0
-71 68 0
70 71 -68 0
3 23 -73 0
-3 23 73 0
3 -23 73 0
-3 -23 -73 0
73 68 -43 0
-73 68 43 0
73 -68 43 0
-73 -68 -43 0
68 -74 0
73 -74 0
-68 -73 74 0
23 -75 0
3 -75 0
-23 -3 75 0
-74 72 0
-75 72 0
74 75 -72 0
4 24 -77 0
-4 24 77 0
4 -24 77 0
-4 -24 -77 0
77 72 -44 0
-77 72 44 0
77 -72 44 0
-77 -72 -44 0
72 -78 0
77 -78 0
-72 -77 78 0
24 -79 0
4 -79 0
-24 -4 79 0
-78 76 0
-79 76 0
78 79 -76 0
5 25 -81 0
-5 25 81 0
5 -25 81 0
-5 -25 -81 0
81 76 -45 0
-81 76 45 0
81 -76 45 0
-81 -76 -45 0
76 -82 0
81 -82 0
-76 -81 82 0
25 -83 0
5 -83 0
-25 -5 83 0
-82 80 0
-83 80 0
82 83 -80 0
6 26 -85 0
-6 26 85 0
6 -26 85 0
-6 -26 -85 0
85 80 -46 0
-85 80 46 0
85 -80 46 0
-85 -80 -46 0
80 -86 0
85 -86 0
-80 -85 86 0
26 -87 0
6 -87 0
-26 -6 87 0
-86 84 0
-87 84 0
86 87 -84 0
7 27 -89 0
-7 27 89 0
7 -27 89 0
-7 -27 -89 0
89 84 -47 0
-89 84 47 0
89 -84 47 0
-89 -84 -47 0
84 -90 0
89 -90 0
-84 -89 90 0
27 -91 0
7 -91 0
-27 -7 91 0
-90 88 0
-91 88 0
90 91 -88 0
8 28 -93 0
-8 28 93 0
8 -28 93 0
-8 -28 -93 0
93 88 -48 0
-93 88 48 0
93 -88 48 0
-93 -88 -48 0
88 -94 0
93 -94 0
-88 -93 94 0
28 -95 0
8 -95 0
-28 -8 95 0
-94 92 0
-95 92 0
94 95 -92 0
9 29 -97 0
-9 29 97 0
9 -29 97 0
-9 -29 -97 0
97 92 -49 0
-97 92 49 0
97 -92 49 0
-97 -92 -49 0
92 -98 0
97 -98 0
-92 -97 98 0
29 -99 0
9 -99 0
-29 -9 99 0
-98 96 0
-99 96 0
98 99 -96 0
10 30 -101 0
-10 30 101 0
10 -30 101 0
-10 -30 -101 0
101 96 -50 0
-101 96 50 0
101 -96 50 0
-101 -96 -50 0
96 -102 0
101 -102 0
-96 -101 102 0
30 -103 0
10 -103 0
-30 -10 103 0
-102 100 0
-103 100 0
102 103 -100 0
11 31 -105 0
-11 31 105 0
11 -31 105 0
-11 -31 -105 0
105 100 -51 0
-105 100 51 0
105 -100 51 0
-105 -100 -51 0
100 -106 0
105 -106 0
-100 -105 106 0
31 -107 0
11 -107 0
-31 -11 107 0
-106 104 0
-107 104 0
106 107 -104 0
12 32 -109 0
-12 32 109 0
12 -32 109 0
-12 -32 -109 0
109 104 -52 0
-109 104 52 0
109 -104 52 0
-109 -104 -52 0
104 -110 0
109 -110 0
-104 -109 110 0
32 -111 0
12 -111 0
-32 -12 111 0
-110 108 0
-111 108 0
110 111 -108 0
13 33 -113 0
-13 33 113 0
13 -33 113 0
-13 -33 -113 0
113 108 -53 0
-113 108 53 0
113 -108 53 0
-113 -108 -53 0
108 -114 0
113 -114 0
-108 -113 114 0
33 -115 0
13 -115 0
-33 -13 115 0
-114 112 0
-115 112 0
114 115 -112 0
14 34 -117 0
-14 34 117 0
14 -34 117 0
-14 -34 -117 0
117 112 -54 0
-117 112 54 0
117 -112 54 0
-117 -112 -54 0
112 -118 0
117 -118 0
-112 -117 118 0
34 -119 0
14 -119 0
-34 -14 119 0
-118 116 0
-119 116 0
118 119 -116 0
15 35 -121 0
-15 35 121 0
15 -35 121 0
-15 -35 -121 0
121 116 -55 0
-121 116 55 0
121 -116 55 0
-121 -116 -55 0
116 -122 0
121 -122 0
-116 -121 122 0
35 -123 0
15 -123 0
-35 -15 123 0
-122 120 0
-123 120 0
122 123 -120 0
16 36 -125 0
-16 36 125 0
16 -36 125 0
-16 -36 -125 0
125 120 -56 0
-125 120 56 0
125 -120 56 0
-125 -120 -56 0
120 -126 0
125 -126 0
-120 -125 126 0
36 -127 0
16 -127 0
-36 -16 127 0
-126 124 0
-127 124 0
126 127 -124 0
17 37 -129 0
-17 37 129 0
17 -37 129 0
-17 -37 -129 0
129 124 -57 0
-129 124 57 0
129 -124 57 0
-129 -124 -57 0
124 -130 0
129 -130 0
-124 -129 130 0
37 -131 0
17 -131 0
-37 -17 131 0
-130 128 0
-131 128 0
130 131 -128 0
18 38 -133 0
-18 38 133 0
18 -38 133 0
-18 -38 -133 0
133 128 -58 0
-133 128 58 0
133 -128 58 0
-133 -128 -58 0
128 -134 0
133 -134 0
-128 -133 134 0
38 -135 0
18 -135 0
-38 -18 135 0
-134 132 0
-135 132 0
134 135 -132 0
19 39 -137 0
-19 39 137 0
19 -39 137 0
-19 -39 -137 0
137 132 -59 0
-137 132 59 0
137 -132 59 0
-137 -132 -59 0
132 -138 0
137 -138 0
-132 -137 138 0
39 -139 0
19 -139 0
-39 -19 139 0
-138 136 0
-139 136 0
138 139 -136 0
20 40 -140 0
-20 40 140 0
20 -40 140 0
-20 -40 -140 0
140 136 -60 0
-140 136 60 0
140 -136 60 0
-140 -136 -60 0
136 -141 0
140 -141 0
-136 -140 141 0
40 -142 0
20 -142 0
-40 -20 142 0
-141 61 0
-142 61 0
141 142 -61 0
